2 100 1176
2 5 8 4 3 5 5 7 5 4
3 3
5 8 6
4 8 2
0 40.0 50.0 0.0 0.0 0 1236
2 45.0 68.0 90.0 10.0 830 1049 78 0 0 1 0 0 1 0 0 1 1
3 45.0 70.0 90.0 30.0 756 939 83 0 0 0 0 0 0 0 0 1 0
4 42.0 66.0 90.0 10.0 16 336 84 0 0 0 0 0 0 1 0 1 0
5 42.0 68.0 90.0 10.0 643 866 84 1 0 0 0 0 0 0 1 0 0
6 42.0 65.0 90.0 10.0 15 226 88 0 0 0 0 0 1 0 0 1 0
7 40.0 69.0 90.0 20.0 499 824 66 0 0 0 0 0 0 0 1 0 1
8 40.0 66.0 90.0 20.0 87 308 57 0 0 1 0 0 0 0 0 1 0
9 38.0 68.0 90.0 20.0 150 429 10 0 0 0 1 0 0 0 0 0 0
10 38.0 70.0 90.0 10.0 429 710 20 0 0 0 0 0 0 0 0 0 1
11 35.0 66.0 90.0 10.0 279 488 35 1 0 0 0 0 0 0 0 0 0
12 35.0 69.0 90.0 10.0 363 590 99 1 0 0 0 0 0 0 0 0 0
13 25.0 85.0 90.0 20.0 547 826 36 0 0 0 1 0 0 0 0 0 0
14 22.0 75.0 90.0 30.0 30 280 22 0 0 0 0 0 1 0 0 0 0
15 22.0 85.0 90.0 10.0 489 698 98 0 0 0 0 0 0 0 1 0 0
16 20.0 80.0 90.0 40.0 318 495 17 0 0 0 0 0 0 1 0 1 0
17 20.0 85.0 90.0 40.0 394 609 68 0 0 0 0 1 1 0 1 1 0
18 18.0 75.0 90.0 20.0 33 226 69 0 0 1 0 0 0 0 0 0 0
19 15.0 75.0 90.0 20.0 68 365 85 1 1 0 0 0 0 0 0 0 0
20 15.0 80.0 90.0 10.0 176 447 40 0 1 1 0 0 0 1 0 0 0
21 30.0 50.0 90.0 10.0 10 265 6 0 0 1 0 0 0 1 0 0 0
22 30.0 52.0 90.0 20.0 836 1043 70 0 1 0 1 0 1 0 1 0 0
23 28.0 52.0 90.0 20.0 704 991 34 1 0 1 0 0 0 1 0 0 0
24 28.0 55.0 90.0 10.0 664 845 98 0 0 0 0 0 0 1 0 1 0
25 25.0 50.0 90.0 10.0 15 333 53 0 0 1 0 1 0 0 0 1 0
26 25.0 52.0 90.0 40.0 88 305 47 1 1 0 0 0 0 0 1 0 0
27 25.0 55.0 90.0 10.0 502 821 99 0 0 0 0 1 0 0 0 0 0
28 23.0 52.0 90.0 10.0 179 398 67 0 0 0 0 0 0 0 1 0 0
29 23.0 55.0 90.0 20.0 476 663 78 1 0 1 0 0 1 1 0 1 1
30 20.0 50.0 90.0 10.0 288 475 97 1 1 0 0 0 0 0 0 0 0
31 20.0 55.0 90.0 10.0 368 585 5 1 0 1 0 0 1 0 0 1 1
32 10.0 35.0 90.0 20.0 144 293 47 0 0 0 0 0 0 0 1 0 0
33 10.0 40.0 90.0 30.0 31 309 47 0 1 1 0 1 1 1 0 0 0
34 8.0 40.0 90.0 40.0 33 313 26 0 0 0 0 1 0 0 0 0 0
35 8.0 45.0 90.0 20.0 655 912 97 0 1 0 0 0 0 0 1 0 0
36 5.0 35.0 90.0 10.0 191 436 61 0 0 1 1 0 1 0 0 0 0
37 5.0 45.0 90.0 10.0 588 793 34 0 0 0 0 0 0 0 1 1 0
38 2.0 40.0 90.0 20.0 305 512 3 0 0 0 0 1 0 0 0 0 0
39 0.0 40.0 90.0 30.0 414 587 41 0 0 0 0 0 0 1 1 0 0
40 0.0 45.0 90.0 20.0 481 710 58 0 1 0 1 0 0 1 0 0 0
41 35.0 30.0 90.0 10.0 180 405 71 0 0 0 0 0 0 1 0 0 0
42 35.0 32.0 90.0 10.0 63 338 29 0 1 0 0 0 0 0 1 0 0
43 33.0 32.0 90.0 20.0 19 345 18 0 1 0 0 0 1 1 0 0 0
44 33.0 35.0 90.0 10.0 16 273 58 0 0 0 1 0 0 0 0 0 0
45 32.0 30.0 90.0 10.0 278 493 40 0 0 0 0 0 0 0 1 0 0
46 30.0 30.0 90.0 10.0 453 688 73 0 1 0 0 0 0 0 0 0 0
47 30.0 32.0 90.0 30.0 355 602 23 0 0 1 1 0 0 1 0 0 0
48 30.0 35.0 90.0 10.0 837 1127 12 0 0 0 0 1 0 0 0 1 1
49 28.0 30.0 90.0 10.0 539 786 81 0 0 1 0 0 1 0 0 0 0
50 28.0 35.0 90.0 10.0 867 1126 10 1 0 0 0 1 1 0 0 1 0
51 26.0 32.0 90.0 10.0 719 976 12 0 0 1 0 0 0 0 1 0 1
52 25.0 30.0 90.0 10.0 635 876 29 0 0 0 0 0 0 1 0 0 0
53 25.0 35.0 90.0 10.0 825 1056 93 0 0 1 0 0 1 0 1 0 0
54 44.0 5.0 90.0 20.0 193 440 10 0 0 0 1 0 0 1 1 1 1
55 42.0 10.0 90.0 40.0 78 365 13 0 0 1 0 0 0 0 0 0 1
56 42.0 15.0 90.0 10.0 35 287 94 0 0 0 1 0 0 0 0 0 0
57 40.0 5.0 90.0 30.0 308 513 48 1 0 1 0 0 0 0 0 0 1
58 40.0 15.0 90.0 40.0 35 246 61 0 1 0 0 0 0 0 1 0 0
59 38.0 5.0 90.0 30.0 376 629 2 0 0 0 1 0 0 0 0 0 0
60 38.0 15.0 90.0 10.0 519 872 83 0 0 0 0 0 1 0 0 0 1
61 35.0 5.0 90.0 20.0 463 728 77 0 0 0 0 0 0 0 0 0 1
62 50.0 30.0 90.0 10.0 412 729 45 1 0 0 0 0 0 0 0 0 1
63 50.0 35.0 90.0 20.0 181 398 36 0 1 0 1 1 0 0 0 0 1
64 50.0 40.0 90.0 50.0 100 289 80 0 0 1 1 0 0 0 0 0 0
65 48.0 30.0 90.0 10.0 539 786 99 0 0 0 1 0 0 0 1 1 0
66 48.0 40.0 90.0 10.0 12 223 0 0 1 1 1 0 0 0 0 0 0
67 47.0 35.0 90.0 10.0 753 948 21 0 0 0 1 1 1 0 0 0 0
68 47.0 40.0 90.0 10.0 12 275 4 0 0 0 0 0 0 1 0 0 0
69 45.0 30.0 90.0 10.0 669 842 98 0 0 0 0 1 0 0 0 0 0
70 45.0 35.0 90.0 10.0 836 1049 64 0 0 0 0 0 0 1 0 0 0
71 95.0 30.0 90.0 30.0 284 559 33 0 0 0 1 0 1 0 0 0 0
72 95.0 35.0 90.0 20.0 194 459 33 0 0 0 1 0 1 0 0 1 0
73 53.0 30.0 90.0 10.0 367 588 85 1 0 0 0 0 0 0 1 0 1
74 92.0 30.0 90.0 10.0 370 659 93 0 0 0 1 1 0 0 0 0 0
75 53.0 35.0 90.0 50.0 263 502 22 1 0 0 0 0 0 0 0 0 0
76 45.0 65.0 90.0 20.0 847 1130 99 0 0 0 0 0 1 0 1 0 0
77 90.0 35.0 90.0 10.0 119 344 23 0 1 0 0 0 0 0 1 0 0
78 88.0 30.0 90.0 10.0 469 748 38 0 1 1 1 0 0 0 0 0 0
79 88.0 35.0 90.0 20.0 50 295 13 0 1 0 0 1 0 0 0 1 0
80 87.0 30.0 90.0 10.0 573 826 93 0 0 0 0 0 0 0 1 0 0
81 85.0 25.0 90.0 10.0 694 895 46 0 0 0 0 0 0 1 0 0 0
82 85.0 35.0 90.0 30.0 47 356 46 0 0 1 0 1 0 0 0 0 0
83 75.0 55.0 90.0 20.0 293 496 7 1 0 1 0 0 1 0 0 1 0
84 72.0 55.0 90.0 10.0 154 449 85 0 0 0 1 0 0 1 1 0 0
85 70.0 58.0 90.0 20.0 360 621 67 0 1 0 0 0 0 0 0 0 0
86 68.0 60.0 90.0 30.0 470 697 78 0 0 0 0 0 0 0 0 1 0
87 66.0 55.0 90.0 10.0 76 335 76 1 0 1 1 0 0 0 0 0 0
88 65.0 55.0 90.0 20.0 25 260 33 0 0 0 0 1 0 0 0 1 0
89 65.0 60.0 90.0 30.0 551 802 96 0 0 0 0 0 0 0 1 0 0
90 63.0 58.0 90.0 10.0 640 899 55 0 0 0 0 0 0 0 1 1 1
91 60.0 55.0 90.0 10.0 20 276 63 0 0 0 0 0 0 1 0 0 0
92 60.0 60.0 90.0 10.0 756 969 26 0 0 1 0 0 0 0 0 0 0
93 67.0 85.0 90.0 20.0 257 552 81 0 0 0 0 0 0 0 1 0 0
94 65.0 85.0 90.0 40.0 409 584 61 0 0 0 0 0 0 1 0 0 0
95 65.0 82.0 90.0 10.0 209 412 63 0 0 0 0 0 0 0 1 0 0
96 62.0 80.0 90.0 30.0 130 305 38 0 1 0 0 0 0 0 0 0 0
97 60.0 80.0 90.0 10.0 36 283 39 0 1 0 0 0 0 0 0 1 0
98 60.0 85.0 90.0 30.0 470 713 95 0 0 1 0 0 0 0 0 0 0
99 58.0 75.0 90.0 20.0 30 248 76 0 1 0 0 0 0 0 0 0 1
100 55.0 80.0 90.0 10.0 628 935 11 0 0 0 1 0 0 0 0 0 0
101 55.0 85.0 90.0 20.0 530 843 10 0 0 0 1 0 1 0 0 1 0